benchmarks/bfuzz0/32592317962057312530326806982192986062.smt2
(set-logic QF_FP)
(declare-const x0 (_ FloatingPoint 8 24))
(declare-const x1 (_ FloatingPoint 8 24))
(declare-const x2 (_ FloatingPoint 8 24))
(declare-const x3 (_ FloatingPoint 8 24))
(declare-const x4 (_ FloatingPoint 8 24))
(declare-const x5 (_ FloatingPoint 8 24))
(declare-const x6 (_ FloatingPoint 8 24))
(declare-const x7 (_ FloatingPoint 8 24))
(assert (fp.gt (fp.sub RNE x0 x4) (fp.add RNE x0 x0)))
(assert (fp.eq (fp.sub RNE x6 x2) (fp.neg x3)))
(assert (fp.lt (fp.add RNE x7 x5) (fp.mul RNE x2 x5)))
(assert (fp.leq (fp.mul RNE x0 x6) (fp.neg x3)))
(assert (fp.gt (fp.div RNE x6 x4) (fp.add RNE x4 x3)))
(assert (fp.gt (fp.add RNE x6 x2) (fp.div RNE x6 x1)))
(assert (fp.eq (fp.div RNE x7 x3) (fp.sub RNE x2 x0)))
(assert (fp.geq (fp.neg x0) (fp.mul RNE x0 x7)))
(assert (fp.lt (fp.div RNE x0 x2) (fp.sub RNE x6 x2)))
(assert (fp.eq (fp.neg x1) (fp.add RNE x2 x0)))
(assert (fp.geq (fp.add RNE x4 x5) (fp.neg x4)))
(assert (fp.eq (fp.sub RNE x6 x1) (fp.sub RNE x1 x0)))
(assert (fp.gt (fp.div RNE x2 x7) (fp.sub RNE x4 x4)))
(assert (fp.gt (fp.div RNE x4 x0) (fp.mul RNE x3 x3)))
(assert (fp.geq (fp.sub RNE x3 x4) (fp.sub RNE x3 x6)))
(check-sat)
