db/data/32592317962057312530326806982192986062.z3.out
sat
-------------------
56.902002870
